Route #1: 57 94 64 105 69 17 2 77 67
Route #2: 74 99 11 34 72 29 96
Route #3: 82 63 31 40 13 54 85 21 49
Route #4: 104 1 53 87 60 51 100 45
Route #5: 76 43 97 93 28 103 101 5
Route #6: 83 48 8 36 91 88 58 14
Route #7: 44 15 12 9 84 75 7
Route #8: 52 92 102 24 90 26 62
Route #9: 22 33
Route #10: 78 19 27 37 79 71 46 66
Route #11: 86 18 41 10 16 20 56
Route #12: 59 89 30 42 23 3 32 73 35
Route #13: 39 50 81 6 70 4 98 55
Route #14: 25 47 61 80 65 38 95 68
Cost 26381
